\ LP format - for model browsing. Use MPS format to capture full model detail.
Minimize
  0 B10(0) + 0 B13(0) + 0 B17(0) + 0 B22(0) + 0 B23(0) + 0 B24(0) + 0 B28(0)
   + 0 B29(0) + 0 B31(0) + 0 B34(0) + 0 B35(0) + 0 B36(0) + 0 B37(0)
   + 0 B38(0) + 0 B39(0) + 0 B40(0) + 0 B41(0) + 0 B42(0) + 0 B43(0)
   + 0 B44(0) + 0 B45(0) + I56(1)
Subject To
 c0: B0(15) = 1
 c1: B1(15) + B2(12) = 1
 c2: B3(12) + B4(14) = 1
 c3: B5(14) = 1
 c4: B6(12) + B7(12) = 1
 c5: B8(11) + B9(11) = 1
 c6: - 43 B0(15) - I46(15) + I47(16) + I48(14) >= 0
 c7: - 1.000000043e+09 B0(15) - 1e+09 B1(15) - I46(15) + I47(16) + I48(14)
   >= -1.999999993e+09
 c8: - 63 B3(12) - 53 B4(14) - I49(13) - I50(15) + I51(16) >= 0
 c9: - 63 B3(12) - 1.000000053e+09 B4(14) - 1e+09 B5(14) - I49(13)
   - I50(15) + I51(16) >= -1.999999993e+09
 c10: - 125 B6(12) - 135 B7(12) - I52(12) - I53(12) + I54(13) + I55(13)
   >= 0
 c11: - 1.000000125e+09 B6(12) - 135 B7(12) - 1e+09 B8(11) - I52(12)
   - I53(12) + I54(13) + I55(13) >= -1.999999991e+09
 c12: - 125 B6(12) - 1.000000135e+09 B7(12) - 1e+09 B9(11) - I52(12)
   - I53(12) + I54(13) + I55(13) >= -1.999999991e+09
 c13: - 1e+09 B0(15) + I46(15) <= 0
 c14: - 1e+09 B1(15) + I47(16) <= 0
 c15: - 1e+09 B2(12) + I48(14) <= 0
 c16: - 1e+09 B3(12) + I49(13) <= 0
 c17: - 1e+09 B4(14) + I50(15) <= 0
 c18: - 1e+09 B5(14) + I51(16) <= 0
 c19: - 1e+09 B6(12) + I52(12) <= 0
 c20: - 1e+09 B7(12) + I53(12) <= 0
 c21: - 1e+09 B8(11) + I54(13) <= 0
 c22: - 1e+09 B9(11) + I55(13) <= 0
 c23: - 1e+09 B0(15) - 1e+09 B1(15) - 1e+09 B11(2) + I46(15) - I47(16)
   >= -2.999999903e+09
 c24: - 1e+09 B0(15) - 1e+09 B1(15) + 1e+09 B11(2) - I46(15) + I47(16)
   >= -1.99999995e+09
 c25: - 1e+09 B0(15) - 1e+09 B3(12) - 1e+09 B12(2) + I46(15) - I49(13)
   >= -2.99999993e+09
 c26: - 1e+09 B0(15) - 1e+09 B3(12) + 1e+09 B12(2) - I46(15) + I49(13)
   >= -1.999999948e+09
 c27: - 1e+09 B0(15) - 1e+09 B6(12) - 1e+09 B14(2) + I46(15) - I52(12)
   >= -2.999999867e+09
 c28: - 1e+09 B0(15) - 1e+09 B6(12) + 1e+09 B14(2) - I46(15) + I52(12)
   >= -1.999999949e+09
 c29: - 1e+09 B0(15) - 1e+09 B8(11) - 1e+09 B15(2) + I46(15) - I54(13)
   >= -2.999999949e+09
 c30: - 1e+09 B0(15) - 1e+09 B8(11) + 1e+09 B15(2) - I46(15) + I54(13)
   >= -1.99999995e+09
 c31: - 1e+09 B0(15) - 1e+09 B1(15) - 1e+09 B16(2) - I46(15) + I47(16)
   >= -2.99999995e+09
 c32: - 1e+09 B0(15) - 1e+09 B1(15) + 1e+09 B16(2) + I46(15) - I47(16)
   >= -1.999999903e+09
 c33: - 1e+09 B1(15) - 1e+09 B3(12) - 1e+09 B18(4) + I47(16) - I49(13)
   >= -2.99999993e+09
 c34: - 1e+09 B1(15) - 1e+09 B3(12) + 1e+09 B18(4) - I47(16) + I49(13)
   >= -1.999999905e+09
 c35: - 1e+09 B2(12) - 1e+09 B4(14) - 1e+09 B18(4) + I48(14) - I50(15)
   >= -2.999999941e+09
 c36: - 1e+09 B2(12) - 1e+09 B4(14) + 1e+09 B18(4) - I48(14) + I50(15)
   >= -1.999999896e+09
 c37: - 1e+09 B2(12) - 1e+09 B5(14) - 1e+09 B19(2) + I48(14) - I51(16)
   >= -2.999999919e+09
 c38: - 1e+09 B2(12) - 1e+09 B5(14) + 1e+09 B19(2) - I48(14) + I51(16)
   >= -1.999999899e+09
 c39: - 1e+09 B1(15) - 1e+09 B6(12) - 1e+09 B20(4) + I47(16) - I52(12)
   >= -2.999999867e+09
 c40: - 1e+09 B1(15) - 1e+09 B6(12) + 1e+09 B20(4) - I47(16) + I52(12)
   >= -1.999999903e+09
 c41: - 1e+09 B2(12) - 1e+09 B7(12) - 1e+09 B20(4) + I48(14) - I53(12)
   >= -2.999999858e+09
 c42: - 1e+09 B2(12) - 1e+09 B7(12) + 1e+09 B20(4) - I48(14) + I53(12)
   >= -1.999999896e+09
 c43: - 1e+09 B1(15) - 1e+09 B8(11) - 1e+09 B21(4) + I47(16) - I54(13)
   >= -2.99999995e+09
 c44: - 1e+09 B1(15) - 1e+09 B8(11) + 1e+09 B21(4) - I47(16) + I54(13)
   >= -1.999999906e+09
 c45: - 1e+09 B2(12) - 1e+09 B9(11) - 1e+09 B21(4) + I48(14) - I55(13)
   >= -2.999999932e+09
 c46: - 1e+09 B2(12) - 1e+09 B9(11) + 1e+09 B21(4) - I48(14) + I55(13)
   >= -1.999999899e+09
 c47: - 1e+09 B4(14) - 1e+09 B5(14) - 1e+09 B25(2) + I50(15) - I51(16)
   >= -2.999999918e+09
 c48: - 1e+09 B4(14) - 1e+09 B5(14) + 1e+09 B25(2) - I50(15) + I51(16)
   >= -1.99999994e+09
 c49: - 1e+09 B3(12) - 1e+09 B6(12) - 1e+09 B26(4) + I49(13) - I52(12)
   >= -2.999999869e+09
 c50: - 1e+09 B3(12) - 1e+09 B6(12) + 1e+09 B26(4) - I49(13) + I52(12)
   >= -1.99999993e+09
 c51: - 1e+09 B4(14) - 1e+09 B7(12) - 1e+09 B26(4) + I50(15) - I53(12)
   >= -2.999999857e+09
 c52: - 1e+09 B4(14) - 1e+09 B7(12) + 1e+09 B26(4) - I50(15) + I53(12)
   >= -1.99999994e+09
 c53: - 1e+09 B3(12) - 1e+09 B8(11) - 1e+09 B27(4) + I49(13) - I54(13)
   >= -2.999999949e+09
 c54: - 1e+09 B3(12) - 1e+09 B8(11) + 1e+09 B27(4) - I49(13) + I54(13)
   >= -1.99999993e+09
 c55: - 1e+09 B4(14) - 1e+09 B9(11) - 1e+09 B27(4) + I50(15) - I55(13)
   >= -2.99999993e+09
 c56: - 1e+09 B4(14) - 1e+09 B9(11) + 1e+09 B27(4) - I50(15) + I55(13)
   >= -1.999999941e+09
 c57: - 1e+09 B4(14) - 1e+09 B5(14) - 1e+09 B30(2) - I50(15) + I51(16)
   >= -2.99999994e+09
 c58: - 1e+09 B4(14) - 1e+09 B5(14) + 1e+09 B30(2) + I50(15) - I51(16)
   >= -1.999999918e+09
 c59: - 1e+09 B5(14) - 1e+09 B7(12) - 1e+09 B32(2) + I51(16) - I53(12)
   >= -2.999999857e+09
 c60: - 1e+09 B5(14) - 1e+09 B7(12) + 1e+09 B32(2) - I51(16) + I53(12)
   >= -1.99999992e+09
 c61: - 1e+09 B5(14) - 1e+09 B9(11) - 1e+09 B33(2) + I51(16) - I55(13)
   >= -2.999999931e+09
 c62: - 1e+09 B5(14) - 1e+09 B9(11) + 1e+09 B33(2) - I51(16) + I55(13)
   >= -1.99999992e+09
 c63: - 12 B0(15) + I46(15) >= 0
 c64: I46(15) >= 0
 c65: - 12 B1(15) + I47(16) >= 0
 c66: I47(16) >= 0
 c67: - 12 B2(12) + I48(14) >= 0
 c68: I48(14) >= 0
 c69: I49(13) >= 0
 c70: I49(13) >= 0
 c71: I50(15) >= 0
 c72: I50(15) >= 0
 c73: I51(16) >= 0
 c74: I51(16) >= 0
 c75: - 8 B6(12) + I52(12) >= 0
 c76: I52(12) >= 0
 c77: - 8 B7(12) + I53(12) >= 0
 c78: I53(12) >= 0
 c79: - 8 B8(11) + I54(13) >= 0
 c80: I54(13) >= 0
 c81: - 8 B9(11) + I55(13) >= 0
 c82: I55(13) >= 0
 c83: - 87 B1(15) - 95 B2(12) - 73 B5(14) - 43 B8(11) - 61 B9(11) - I47(16)
   - I48(14) - I51(16) - I54(13) - I55(13) + I56(1) = 0
Bounds
Binaries
 B0(15) B1(15) B2(12) B3(12) B4(14) B5(14) B6(12) B7(12) B8(11) B9(11)
 B10(0) B11(2) B12(2) B13(0) B14(2) B15(2) B16(2) B17(0) B18(4) B19(2)
 B20(4) B21(4) B22(0) B23(0) B24(0) B25(2) B26(4) B27(4) B28(0) B29(0)
 B30(2) B31(0) B32(2) B33(2) B34(0) B35(0) B36(0) B37(0) B38(0) B39(0)
 B40(0) B41(0) B42(0) B43(0) B44(0) B45(0)
Generals
 I46(15) I47(16) I48(14) I49(13) I50(15) I51(16) I52(12) I53(12) I54(13)
 I55(13) I56(1)
End
